s td 209 9 229
b 1 10 57 86
b 2 44 55 193
b 3 27 62 186
b 4 97 215 216
b 5 130 197 206
b 6 96 144 180
b 7 155 166 168
b 8 16 160 196
b 9 191 201 210
b 10 175 194 199
b 11 206 222
b 12 33 211 220
b 13 1 52 68 78
b 14 7 27 199
b 15 16 102 196
b 16 102 133 196
b 17 24 157 180 218
b 18 27 186 199
b 19 33 147 211
b 20 99 147 211
b 21 99 147 229
b 22 57 86 181
b 23 86 132 181
b 24 28 81 190 203
b 25 55 90 127
b 26 51 59 92 167
b 27 23 96 180
b 28 102 133 152
b 29 23 120 123 156
b 30 89 121 226
b 31 14 23 123
b 32 132 181 222
b 33 64 133 152
b 34 45 104 141
b 35 147 202 229
b 36 9 202 229
b 37 9 14 202
b 38 157 165 180
b 39 89 175 199
b 40 23 165 180
b 41 172 181 222
b 42 68 129 186 199
b 43 55 88 193
b 44 135 201 210
b 45 14 69 202
b 46 20 28 190 203
b 47 73 215 216
b 48 36 172 222
b 49 12 48 103 200
b 50 2 53 67 127 145 146 187 195 212
b 51 45 53 67 127 145 146 187 195 212
b 52 45 53 67 145 146 187 195 200 212
b 53 45 53 103 145 146 187 195 200 212
b 54 45 53 58 103 187 195 200 212 225
b 55 5 45 53 58 103 195 200 225
b 56 5 45 58 103 115 195 200 225
b 57 5 45 58 115 195 200 225 228
b 58 5 45 56 58 115 195 225 228
b 59 5 45 56 115 152 173 195 228
b 60 5 56 148 152 173 228
b 61 5 56 148 173 177 228
b 62 56 61 148 173 177 228
b 63 3 61 148 173 177
b 64 56 61 140 177 228
b 65 5 26 148 177
b 66 5 45 115 152 172 173 195
b 67 45 80 115 152 172 173
b 68 32 45 80 152 172 173
b 69 32 52 80 152 172 173
b 70 32 52 64 80 152 173
b 71 32 52 64 80 162 173
b 72 32 52 64 89 162
b 73 52 64 89 162 223
b 74 11 89 162 223
b 75 52 89 199 223
b 76 32 89 162 226
b 77 32 64 80 162 173 190
b 78 32 54 80 162 190
b 79 30 32 54 80 190
b 80 20 30 54 80 190
b 81 20 28 30 54 190
b 82 20 30 80 131
b 83 30 32 54 80 95
b 84 30 80 95 113
b 85 52 72 152 172
b 86 36 72 152 172
b 87 32 45 77 80
b 88 115 164 200 225 228
b 89 5 53 58 195 209
b 90 5 53 150 195 209
b 91 5 8 150 209
b 92 53 150 195 209 219
b 93 42 150 209 219
b 94 150 169 195 219
b 95 53 58 187 200 212 213 225
b 96 13 53 58 212 213
b 97 187 200 213 214 225
b 98 138 213 214 225
b 99 45 48 103 145 146 200
b 100 45 48 66 145 146
b 101 45 48 66 85
b 102 45 127 145 179
b 103 2 53 67 110 127 165 187 195 212
b 104 41 53 110 165 182 183 187 195 212
b 105 41 53 111 122 165 182 183 195 212
b 106 22 41 53 111 122 165 183 195 212
b 107 4 22 53 111 122 165 183 195
b 108 4 22 111 122 149 165 183 195
b 109 4 111 122 126 149 165 183 195
b 110 4 122 126 149 165 183 195 205
b 111 4 49 126 149 165 183 195 205
b 112 4 49 59 126 149 195 205
b 113 4 40 49 59 149 195
b 114 4 40 59 149 185
b 115 4 40 51 59 185
b 116 4 6 40 51 185
b 117 4 40 49 189 195
b 118 40 49 63 189 195
b 119 49 63 178 189 195
b 120 49 63 163 178 195
b 121 49 63 116 163 178
b 122 50 63 116 163 178
b 123 25 47 50 116 163
b 124 25 29 50 116
b 125 25 47 116 151 163
b 126 47 151 163 192
b 127 47 94 163 192
b 128 25 47 50 101
b 129 46 163 178 195
b 130 63 65 178 189 195
b 131 49 59 126 143 205
b 132 49 69 165 183 205
b 133 69 71 165 183 205
b 134 23 69 71 165
b 135 14 23 69 71
b 136 69 71 100 183 205
b 137 17 122 126 205
b 138 111 122 126 149 227
b 139 22 111 149 208
b 140 19 22 41 111 212
b 141 19 41 111 117
b 142 41 111 122 174 182
b 143 111 122 136 174 182
b 144 107 111 136 174
b 145 41 110 158 165 182 183 187
b 146 41 76 158 182 187
b 147 34 76 158 182
b 148 98 110 158 187
b 149 110 135 158 165 183
b 150 110 135 165 217
b 151 135 165 210 217
b 152 2 67 74 110 127 165
b 153 2 74 112 127
b 154 55 74 112 127
b 155 67 74 110 165 176
b 156 67 74 128 176
b 157 110 159 165 176
b 158 2 67 127 145 146 154
b 159 2 127 145 154 184
b 160 2 15 154 184
b 161 18 25 47 101
b 162 21 108 124 159
b 163 108 124 159 176
b 164 31 45 66 85
b 165 38 74 88 134
b 166 39 137 139 183
b 167 137 139 183 204
b 168 43 114 166 192
b 169 60 71 100 183
b 170 52 68 129 199
b 171 52 129 199 223
b 172 70 135 171 217
b 173 135 171 210 217
b 174 73 104 119 215
b 175 104 119 145 215
b 176 104 145 179 215
b 177 75 135 170 221
b 178 79 154 161 198
b 179 2 154 161 198
b 180 40 63 82 189
b 181 35 72 83 93
b 182 35 72 93 106
b 183 35 36 72 106
b 184 36 72 106 152
b 185 4 22 53 84
b 186 87 107 136 174
b 187 55 74 88 134
b 188 55 74 112 134
b 189 91 115 164 228
b 190 45 104 145 179
b 191 108 110 159 176
b 192 74 109 128 176
b 193 118 138 214 225
b 194 47 94 125 192
b 195 135 137 183 204
b 196 135 170 204 221
b 197 135 183 204 221
b 198 135 158 183 221
b 199 59 126 142 143
b 200 114 166 168 192
b 201 37 105 114 168 192
b 202 37 105 114 153 168
b 203 51 59 167 185
b 204 37 153 168 188
b 205 2 67 154 198
b 206 105 114 153 207
b 207 37 94 105 192
b 208 37 94 163 192
b 209 13 53 212 224
1 22
2 43
3 18
4 47
5 11
6 27
7 200
8 15
9 44
10 39
11 48
12 19
13 170
14 18
15 16
16 28
17 38
18 42
19 20
20 21
21 35
22 23
23 32
24 46
25 154
26 203
27 40
28 33
29 31
30 76
31 135
32 41
33 70
34 190
35 36
36 37
37 45
38 40
39 75
40 134
41 48
42 170
43 187
44 151
45 135
46 81
47 174
48 86
49 99
50 51
50 103
50 158
51 52
51 102
52 53
53 54
53 99
54 55
54 95
55 56
55 89
56 57
57 58
57 88
58 59
59 60
59 66
60 61
61 62
61 65
62 63
62 64
66 67
67 68
68 69
68 87
69 70
69 85
70 71
71 72
71 77
72 73
72 76
73 74
73 75
75 171
77 78
78 79
79 80
79 83
80 81
80 82
83 84
85 86
86 184
88 189
89 90
90 91
90 92
92 93
92 94
95 96
95 97
96 209
97 98
98 193
99 100
100 101
101 164
102 190
103 104
103 152
104 105
104 145
105 106
105 142
106 107
106 140
107 185
107 108
108 109
108 139
109 110
109 138
110 111
110 137
111 112
111 132
112 113
112 131
113 114
113 117
114 115
115 203
115 116
117 118
118 180
118 119
119 120
119 130
120 121
120 129
121 122
122 123
123 124
123 125
123 128
125 126
126 127
127 194
127 208
128 161
131 199
132 133
133 134
133 136
134 135
136 169
140 141
142 143
143 144
144 186
145 146
145 148
145 149
146 147
149 198
149 150
150 151
151 173
152 153
152 155
153 154
154 188
155 156
155 157
156 192
157 191
158 205
158 159
159 160
162 163
163 191
165 187
166 167
167 195
168 200
170 171
172 173
174 175
175 176
176 190
177 196
178 179
179 205
181 182
182 183
183 184
187 188
195 197
196 197
197 198
200 201
201 207
201 202
202 204
202 206
207 208
